NAME : rnd29_50.tsp
TYPE : TSP
DIMENSION : 50
EDGE_WEIGHT_TYPE : EUC_2D
NODE_COORD_SECTION
1 228 501
2 764 51
3 977 220
4 103 659
5 934 887
6 718 159
7 343 719
8 446 934
9 514 202
10 998 532
11 713 260
12 592 945
13 517 439
14 621 884
15 25 52
16 767 276
17 254 444
18 642 795
19 69 553
20 404 688
21 34 946
22 496 253
23 702 834
24 918 765
25 730 946
26 839 171
27 708 468
28 817 986
29 792 116
30 622 162
31 419 950
32 584 894
33 245 147
34 764 675
35 473 516
36 577 859
37 885 355
38 477 755
39 335 954
40 955 23
41 245 444
42 575 359
43 31 583
44 402 721
45 53 410
46 890 872
47 974 864
48 36 440
49 987 309
50 61 946
